(set-info :Origin "This instance was generated by: BanditFuzz-- an RL fuzzer for SMT solvers" )
(set-info :Author "Joe Scott, Fed Mora, Vijay Ganesh" )
(set-info :Contact "Joe Scott, joseph.scott@uwaterloo.ca")
(set-logic QF_BV)
(declare-const bool_0 Bool)
(declare-const bool_1 Bool)
(declare-const bool_2 Bool)
(declare-const bool_3 Bool)
(declare-const bool_4 Bool)
(declare-const bv_0 (_ BitVec 32))
(declare-const bv_1 (_ BitVec 32))
(declare-const bv_2 (_ BitVec 32))
(declare-const bv_3 (_ BitVec 32))
(declare-const bv_4 (_ BitVec 32))
(assert (or (and (not bool_2) (bvsle #xa0077e4d  bv_1)) (bvsge (bvadd bv_3 #xe70dc6e9 ) (bvudiv bv_0 bv_4))))
(assert (bvsle (bvudiv (bvnor #xfcf53ace  bv_2) (bvnor bv_4 bv_0)) (bvsrem (bvnor #x52905f68  bv_1) (bvadd #x21e17f94  bv_3))))
(assert (and (bvult (bvnor #xe5e19058  #x85f9e6e8 ) (bvnand bv_4 bv_4)) (bvule (bvxnor #xbcf80e96  bv_4) (bvlshr #x9137bc59  bv_0))))
(assert (bvsle (bvsdiv (bvnor bv_4 bv_4) (bvand bv_4 bv_1)) (bvand (bvshl #xd057d669  bv_2) (bvsdiv #x2fdcb561  #xddb4c1f2 ))))
(assert (bvslt (bvsub (bvxor #x4e958ecd  bv_4) (bvsub #xe4f1ab8a  #x43941bfb )) (bvurem (bvxor bv_4 bv_1) (bvxnor bv_1 #x66e712e8 ))))
(check-sat)
(exit)
